1 3 100 96730.96
1 3 200 99108.56
1 3 300 100203.35
2 3 100 138109.11
2 3 200 139617.32
2 3 300 149479.87
3 3 100 132418.30
3 3 200 141040.16
3 3 300 142247.50
4 3 100 126418.60
4 3 200 129943.93
4 3 300 133043.41
5 3 100 108539.95
5 3 200 112212.10
5 3 300 109715.05
